NAME : MM20_depots
COMMENT : Instance 20 in MD algorithm. Coordinates of depots and vhcl speeds given.
TYPE : TSP
DIMENSION : 5
EDGE_WEIGHT_TYPE : ATT
NODE_COORD_SECTION
501 25.6060 1.6149 1
502 30.0000 30.0000 1
503 30.0000 30.0000 1
504 70.0000 70.0000 1
505 70.0000 70.0000 1
EOF
